c Generated by Lava2000
c 
c i0 : 5
c i1 : 13
c i2 : 22
c i3 : 31
c i4 : 40
c i5 : 49
c i6 : 58
c i7 : 67
c i8 : 76
c i9 : 85
c i10 : 94
c i11 : 103
c i12 : 112
c i13 : 121
c i14 : 130
c i15 : 139
c i16 : 148
c i17 : 157
c i18 : 166
c i19 : 175
c i20 : 184
c i21 : 193
c i22 : 202
c i23 : 211
c i24 : 220
c i25 : 229
c i26 : 238
c i27 : 247
c i28 : 256
c i29 : 265
c i30 : 274
c i31 : 283
p cnf 284 846
-6 0
-4 5 6 0
-4 -5 -6 0
4 -5 6 0
4 -6 5 0
-3 4 5 0
-3 -4 -5 0
3 -4 5 0
3 -5 4 0
-3 -2 0
3 2 0
11 -5 -6 0
-11 5 0
-11 6 0
-12 13 6 0
-12 -13 -6 0
12 -13 6 0
12 -6 13 0
-10 11 12 0
-10 -11 -12 0
10 -11 12 0
10 -12 11 0
-9 10 13 0
-9 -10 -13 0
9 -10 13 0
9 -13 10 0
-9 -8 0
9 8 0
19 -11 -12 0
-19 11 0
-19 12 0
20 -13 -6 0
-20 13 0
-20 6 0
-18 19 20 0
-18 -19 -20 0
18 -19 20 0
18 -20 19 0
-21 22 6 0
-21 -22 -6 0
21 -22 6 0
21 -6 22 0
-17 18 21 0
-17 -18 -21 0
17 -18 21 0
17 -21 18 0
-16 17 22 0
-16 -17 -22 0
16 -17 22 0
16 -22 17 0
-16 -15 0
16 15 0
28 -18 -21 0
-28 18 0
-28 21 0
29 -22 -6 0
-29 22 0
-29 6 0
-27 28 29 0
-27 -28 -29 0
27 -28 29 0
27 -29 28 0
-30 31 6 0
-30 -31 -6 0
30 -31 6 0
30 -6 31 0
-26 27 30 0
-26 -27 -30 0
26 -27 30 0
26 -30 27 0
-25 26 31 0
-25 -26 -31 0
25 -26 31 0
25 -31 26 0
-25 -24 0
25 24 0
37 -27 -30 0
-37 27 0
-37 30 0
38 -31 -6 0
-38 31 0
-38 6 0
-36 37 38 0
-36 -37 -38 0
36 -37 38 0
36 -38 37 0
-39 40 6 0
-39 -40 -6 0
39 -40 6 0
39 -6 40 0
-35 36 39 0
-35 -36 -39 0
35 -36 39 0
35 -39 36 0
-34 35 40 0
-34 -35 -40 0
34 -35 40 0
34 -40 35 0
-34 -33 0
34 33 0
46 -36 -39 0
-46 36 0
-46 39 0
47 -40 -6 0
-47 40 0
-47 6 0
-45 46 47 0
-45 -46 -47 0
45 -46 47 0
45 -47 46 0
-48 49 6 0
-48 -49 -6 0
48 -49 6 0
48 -6 49 0
-44 45 48 0
-44 -45 -48 0
44 -45 48 0
44 -48 45 0
-43 44 49 0
-43 -44 -49 0
43 -44 49 0
43 -49 44 0
-43 -42 0
43 42 0
55 -45 -48 0
-55 45 0
-55 48 0
56 -49 -6 0
-56 49 0
-56 6 0
-54 55 56 0
-54 -55 -56 0
54 -55 56 0
54 -56 55 0
-57 58 6 0
-57 -58 -6 0
57 -58 6 0
57 -6 58 0
-53 54 57 0
-53 -54 -57 0
53 -54 57 0
53 -57 54 0
-52 53 58 0
-52 -53 -58 0
52 -53 58 0
52 -58 53 0
-52 -51 0
52 51 0
64 -54 -57 0
-64 54 0
-64 57 0
65 -58 -6 0
-65 58 0
-65 6 0
-63 64 65 0
-63 -64 -65 0
63 -64 65 0
63 -65 64 0
-66 67 6 0
-66 -67 -6 0
66 -67 6 0
66 -6 67 0
-62 63 66 0
-62 -63 -66 0
62 -63 66 0
62 -66 63 0
-61 62 67 0
-61 -62 -67 0
61 -62 67 0
61 -67 62 0
-61 -60 0
61 60 0
73 -63 -66 0
-73 63 0
-73 66 0
74 -67 -6 0
-74 67 0
-74 6 0
-72 73 74 0
-72 -73 -74 0
72 -73 74 0
72 -74 73 0
-75 76 6 0
-75 -76 -6 0
75 -76 6 0
75 -6 76 0
-71 72 75 0
-71 -72 -75 0
71 -72 75 0
71 -75 72 0
-70 71 76 0
-70 -71 -76 0
70 -71 76 0
70 -76 71 0
-70 -69 0
70 69 0
82 -72 -75 0
-82 72 0
-82 75 0
83 -76 -6 0
-83 76 0
-83 6 0
-81 82 83 0
-81 -82 -83 0
81 -82 83 0
81 -83 82 0
-84 85 6 0
-84 -85 -6 0
84 -85 6 0
84 -6 85 0
-80 81 84 0
-80 -81 -84 0
80 -81 84 0
80 -84 81 0
-79 80 85 0
-79 -80 -85 0
79 -80 85 0
79 -85 80 0
-79 -78 0
79 78 0
91 -81 -84 0
-91 81 0
-91 84 0
92 -85 -6 0
-92 85 0
-92 6 0
-90 91 92 0
-90 -91 -92 0
90 -91 92 0
90 -92 91 0
-93 94 6 0
-93 -94 -6 0
93 -94 6 0
93 -6 94 0
-89 90 93 0
-89 -90 -93 0
89 -90 93 0
89 -93 90 0
-88 89 94 0
-88 -89 -94 0
88 -89 94 0
88 -94 89 0
-88 -87 0
88 87 0
100 -90 -93 0
-100 90 0
-100 93 0
101 -94 -6 0
-101 94 0
-101 6 0
-99 100 101 0
-99 -100 -101 0
99 -100 101 0
99 -101 100 0
-102 103 6 0
-102 -103 -6 0
102 -103 6 0
102 -6 103 0
-98 99 102 0
-98 -99 -102 0
98 -99 102 0
98 -102 99 0
-97 98 103 0
-97 -98 -103 0
97 -98 103 0
97 -103 98 0
-97 -96 0
97 96 0
109 -99 -102 0
-109 99 0
-109 102 0
110 -103 -6 0
-110 103 0
-110 6 0
-108 109 110 0
-108 -109 -110 0
108 -109 110 0
108 -110 109 0
-111 112 6 0
-111 -112 -6 0
111 -112 6 0
111 -6 112 0
-107 108 111 0
-107 -108 -111 0
107 -108 111 0
107 -111 108 0
-106 107 112 0
-106 -107 -112 0
106 -107 112 0
106 -112 107 0
-106 -105 0
106 105 0
118 -108 -111 0
-118 108 0
-118 111 0
119 -112 -6 0
-119 112 0
-119 6 0
-117 118 119 0
-117 -118 -119 0
117 -118 119 0
117 -119 118 0
-120 121 6 0
-120 -121 -6 0
120 -121 6 0
120 -6 121 0
-116 117 120 0
-116 -117 -120 0
116 -117 120 0
116 -120 117 0
-115 116 121 0
-115 -116 -121 0
115 -116 121 0
115 -121 116 0
-115 -114 0
115 114 0
127 -117 -120 0
-127 117 0
-127 120 0
128 -121 -6 0
-128 121 0
-128 6 0
-126 127 128 0
-126 -127 -128 0
126 -127 128 0
126 -128 127 0
-129 130 6 0
-129 -130 -6 0
129 -130 6 0
129 -6 130 0
-125 126 129 0
-125 -126 -129 0
125 -126 129 0
125 -129 126 0
-124 125 130 0
-124 -125 -130 0
124 -125 130 0
124 -130 125 0
-124 -123 0
124 123 0
136 -126 -129 0
-136 126 0
-136 129 0
137 -130 -6 0
-137 130 0
-137 6 0
-135 136 137 0
-135 -136 -137 0
135 -136 137 0
135 -137 136 0
-138 139 6 0
-138 -139 -6 0
138 -139 6 0
138 -6 139 0
-134 135 138 0
-134 -135 -138 0
134 -135 138 0
134 -138 135 0
-133 134 139 0
-133 -134 -139 0
133 -134 139 0
133 -139 134 0
-133 -132 0
133 132 0
145 -135 -138 0
-145 135 0
-145 138 0
146 -139 -6 0
-146 139 0
-146 6 0
-144 145 146 0
-144 -145 -146 0
144 -145 146 0
144 -146 145 0
-147 148 6 0
-147 -148 -6 0
147 -148 6 0
147 -6 148 0
-143 144 147 0
-143 -144 -147 0
143 -144 147 0
143 -147 144 0
-142 143 148 0
-142 -143 -148 0
142 -143 148 0
142 -148 143 0
-142 -141 0
142 141 0
154 -144 -147 0
-154 144 0
-154 147 0
155 -148 -6 0
-155 148 0
-155 6 0
-153 154 155 0
-153 -154 -155 0
153 -154 155 0
153 -155 154 0
-156 157 6 0
-156 -157 -6 0
156 -157 6 0
156 -6 157 0
-152 153 156 0
-152 -153 -156 0
152 -153 156 0
152 -156 153 0
-151 152 157 0
-151 -152 -157 0
151 -152 157 0
151 -157 152 0
-151 -150 0
151 150 0
163 -153 -156 0
-163 153 0
-163 156 0
164 -157 -6 0
-164 157 0
-164 6 0
-162 163 164 0
-162 -163 -164 0
162 -163 164 0
162 -164 163 0
-165 166 6 0
-165 -166 -6 0
165 -166 6 0
165 -6 166 0
-161 162 165 0
-161 -162 -165 0
161 -162 165 0
161 -165 162 0
-160 161 166 0
-160 -161 -166 0
160 -161 166 0
160 -166 161 0
-160 -159 0
160 159 0
172 -162 -165 0
-172 162 0
-172 165 0
173 -166 -6 0
-173 166 0
-173 6 0
-171 172 173 0
-171 -172 -173 0
171 -172 173 0
171 -173 172 0
-174 175 6 0
-174 -175 -6 0
174 -175 6 0
174 -6 175 0
-170 171 174 0
-170 -171 -174 0
170 -171 174 0
170 -174 171 0
-169 170 175 0
-169 -170 -175 0
169 -170 175 0
169 -175 170 0
-169 -168 0
169 168 0
181 -171 -174 0
-181 171 0
-181 174 0
182 -175 -6 0
-182 175 0
-182 6 0
-180 181 182 0
-180 -181 -182 0
180 -181 182 0
180 -182 181 0
-183 184 6 0
-183 -184 -6 0
183 -184 6 0
183 -6 184 0
-179 180 183 0
-179 -180 -183 0
179 -180 183 0
179 -183 180 0
-178 179 184 0
-178 -179 -184 0
178 -179 184 0
178 -184 179 0
-178 -177 0
178 177 0
190 -180 -183 0
-190 180 0
-190 183 0
191 -184 -6 0
-191 184 0
-191 6 0
-189 190 191 0
-189 -190 -191 0
189 -190 191 0
189 -191 190 0
-192 193 6 0
-192 -193 -6 0
192 -193 6 0
192 -6 193 0
-188 189 192 0
-188 -189 -192 0
188 -189 192 0
188 -192 189 0
-187 188 193 0
-187 -188 -193 0
187 -188 193 0
187 -193 188 0
-187 -186 0
187 186 0
199 -189 -192 0
-199 189 0
-199 192 0
200 -193 -6 0
-200 193 0
-200 6 0
-198 199 200 0
-198 -199 -200 0
198 -199 200 0
198 -200 199 0
-201 202 6 0
-201 -202 -6 0
201 -202 6 0
201 -6 202 0
-197 198 201 0
-197 -198 -201 0
197 -198 201 0
197 -201 198 0
-196 197 202 0
-196 -197 -202 0
196 -197 202 0
196 -202 197 0
-196 -195 0
196 195 0
208 -198 -201 0
-208 198 0
-208 201 0
209 -202 -6 0
-209 202 0
-209 6 0
-207 208 209 0
-207 -208 -209 0
207 -208 209 0
207 -209 208 0
-210 211 6 0
-210 -211 -6 0
210 -211 6 0
210 -6 211 0
-206 207 210 0
-206 -207 -210 0
206 -207 210 0
206 -210 207 0
-205 206 211 0
-205 -206 -211 0
205 -206 211 0
205 -211 206 0
-205 -204 0
205 204 0
217 -207 -210 0
-217 207 0
-217 210 0
218 -211 -6 0
-218 211 0
-218 6 0
-216 217 218 0
-216 -217 -218 0
216 -217 218 0
216 -218 217 0
-219 220 6 0
-219 -220 -6 0
219 -220 6 0
219 -6 220 0
-215 216 219 0
-215 -216 -219 0
215 -216 219 0
215 -219 216 0
-214 215 220 0
-214 -215 -220 0
214 -215 220 0
214 -220 215 0
-214 -213 0
214 213 0
226 -216 -219 0
-226 216 0
-226 219 0
227 -220 -6 0
-227 220 0
-227 6 0
-225 226 227 0
-225 -226 -227 0
225 -226 227 0
225 -227 226 0
-228 229 6 0
-228 -229 -6 0
228 -229 6 0
228 -6 229 0
-224 225 228 0
-224 -225 -228 0
224 -225 228 0
224 -228 225 0
-223 224 229 0
-223 -224 -229 0
223 -224 229 0
223 -229 224 0
-223 -222 0
223 222 0
235 -225 -228 0
-235 225 0
-235 228 0
236 -229 -6 0
-236 229 0
-236 6 0
-234 235 236 0
-234 -235 -236 0
234 -235 236 0
234 -236 235 0
-237 238 6 0
-237 -238 -6 0
237 -238 6 0
237 -6 238 0
-233 234 237 0
-233 -234 -237 0
233 -234 237 0
233 -237 234 0
-232 233 238 0
-232 -233 -238 0
232 -233 238 0
232 -238 233 0
-232 -231 0
232 231 0
244 -234 -237 0
-244 234 0
-244 237 0
245 -238 -6 0
-245 238 0
-245 6 0
-243 244 245 0
-243 -244 -245 0
243 -244 245 0
243 -245 244 0
-246 247 6 0
-246 -247 -6 0
246 -247 6 0
246 -6 247 0
-242 243 246 0
-242 -243 -246 0
242 -243 246 0
242 -246 243 0
-241 242 247 0
-241 -242 -247 0
241 -242 247 0
241 -247 242 0
-241 -240 0
241 240 0
253 -243 -246 0
-253 243 0
-253 246 0
254 -247 -6 0
-254 247 0
-254 6 0
-252 253 254 0
-252 -253 -254 0
252 -253 254 0
252 -254 253 0
-255 256 6 0
-255 -256 -6 0
255 -256 6 0
255 -6 256 0
-251 252 255 0
-251 -252 -255 0
251 -252 255 0
251 -255 252 0
-250 251 256 0
-250 -251 -256 0
250 -251 256 0
250 -256 251 0
-250 -249 0
250 249 0
262 -252 -255 0
-262 252 0
-262 255 0
263 -256 -6 0
-263 256 0
-263 6 0
-261 262 263 0
-261 -262 -263 0
261 -262 263 0
261 -263 262 0
-264 265 6 0
-264 -265 -6 0
264 -265 6 0
264 -6 265 0
-260 261 264 0
-260 -261 -264 0
260 -261 264 0
260 -264 261 0
-259 260 265 0
-259 -260 -265 0
259 -260 265 0
259 -265 260 0
-259 -258 0
259 258 0
271 -261 -264 0
-271 261 0
-271 264 0
272 -265 -6 0
-272 265 0
-272 6 0
-270 271 272 0
-270 -271 -272 0
270 -271 272 0
270 -272 271 0
-273 274 6 0
-273 -274 -6 0
273 -274 6 0
273 -6 274 0
-269 270 273 0
-269 -270 -273 0
269 -270 273 0
269 -273 270 0
-268 269 274 0
-268 -269 -274 0
268 -269 274 0
268 -274 269 0
-268 -267 0
268 267 0
280 -270 -273 0
-280 270 0
-280 273 0
281 -274 -6 0
-281 274 0
-281 6 0
-279 280 281 0
-279 -280 -281 0
279 -280 281 0
279 -281 280 0
-282 283 6 0
-282 -283 -6 0
282 -283 6 0
282 -6 283 0
-278 279 282 0
-278 -279 -282 0
278 -279 282 0
278 -282 279 0
-277 278 283 0
-277 -278 -283 0
277 -278 283 0
277 -283 278 0
-277 -276 0
277 276 0
284 0
275 -276 -284 0
-275 276 0
-275 284 0
266 -267 -275 0
-266 267 0
-266 275 0
257 -258 -266 0
-257 258 0
-257 266 0
248 -249 -257 0
-248 249 0
-248 257 0
239 -240 -248 0
-239 240 0
-239 248 0
230 -231 -239 0
-230 231 0
-230 239 0
221 -222 -230 0
-221 222 0
-221 230 0
212 -213 -221 0
-212 213 0
-212 221 0
203 -204 -212 0
-203 204 0
-203 212 0
194 -195 -203 0
-194 195 0
-194 203 0
185 -186 -194 0
-185 186 0
-185 194 0
176 -177 -185 0
-176 177 0
-176 185 0
167 -168 -176 0
-167 168 0
-167 176 0
158 -159 -167 0
-158 159 0
-158 167 0
149 -150 -158 0
-149 150 0
-149 158 0
140 -141 -149 0
-140 141 0
-140 149 0
131 -132 -140 0
-131 132 0
-131 140 0
122 -123 -131 0
-122 123 0
-122 131 0
113 -114 -122 0
-113 114 0
-113 122 0
104 -105 -113 0
-104 105 0
-104 113 0
95 -96 -104 0
-95 96 0
-95 104 0
86 -87 -95 0
-86 87 0
-86 95 0
77 -78 -86 0
-77 78 0
-77 86 0
68 -69 -77 0
-68 69 0
-68 77 0
59 -60 -68 0
-59 60 0
-59 68 0
50 -51 -59 0
-50 51 0
-50 59 0
41 -42 -50 0
-41 42 0
-41 50 0
32 -33 -41 0
-32 33 0
-32 41 0
23 -24 -32 0
-23 24 0
-23 32 0
14 -15 -23 0
-14 15 0
-14 23 0
7 -8 -14 0
-7 8 0
-7 14 0
1 -2 -7 0
-1 2 0
-1 7 0
-1 0
